(assert (forall ((pkt_0_4_6_0  Int  )(state_group_0_state_0_5_7_0  Int  )(state_group_0_state_1_6_8_0  Int  )) (let ((_n0 state_group_0_state_0_5_7_0 ))
(let ((_n1 2 ))
(let ((_n2 (ite (=  _n0  1)  _n1   _n0  ) ))
(let ((_n3 state_group_0_state_1_6_8_0 ))
(let ((_n4 false ))
(let ((_n5 (ite (=  _n0  1)  (ite  _n4  1 0)   _n3  ) ))
(let ((_n6 3 ))
(let ((_n7 (ite (=  _n5  999)  _n6   _n2  ) ))
(let ((_n8 (ite (=  _n2  2)  _n7   _n2  ) ))
(let ((_n9 true ))
(let ((_n10 (=   _n0   (ite  _n9  1 0) ) ))
(let ((_n11 (ite (=  _n0  1)  (ite  _n4  1 0)   _n0  ) ))
(let ((_n12 (=   _n11   _n1 ) ))
(let ((_n13 (ite (=  _n0  1)  _n4   _n12  ) ))
(let ((_n14 (not  _n13 ) ))
(let ((_n15 (or   _n14   _n10 ) ))
(let ((_n16 999 ))
(let ((_n17 (ite  _n15   (ite  _n4  1 0)   _n3  ) ))
(let ((_n18 (=   _n17   _n16 ) ))
(let ((_n19 (ite  _n15   _n4   _n18  ) ))
(let ((_n20 (not  _n19 ) ))
(let ((_n21 (or   _n20   _n15 ) ))
(let ((_n22 (not  _n21 ) ))
(let ((_n23 (+   _n0   (ite  _n22  1 0) ) ))
(let ((_n24 (ite (=  (ite  _n19  1 0)  1)  _n23   _n0  ) ))
(let ((_n25 (ite (=  (ite  _n13  1 0)  1)  _n24   _n0  ) ))
(let ((_n26 998 ))
(let ((_n27 (ite (=  _n0  1)  _n3   (ite  _n4  1 0)  ) ))
(let ((_n28 (=   _n27   _n26 ) ))
(let ((_n29 (ite (=  _n0  1)  _n28   _n4  ) ))
(let ((_n30 (not  _n10 ) ))
(let ((_n31 (or   _n29   _n30 ) ))
(let ((_n32 (ite  _n31   (ite  _n4  1 0)   _n26  ) ))
(let ((_n33 (-  _n32 )))
(let ((_n34 1000 ))
(let ((_n35 (ite  _n31   (ite  _n4  1 0)   _n34  ) ))
(let ((_n36 (+   _n35   _n33 ) ))
(let ((_n37 (ite  _n31   (ite  _n4  1 0)   _n36  ) ))
(let ((_n38 (ite  _n31   _n0   (ite  _n4  1 0)  ) ))
(let ((_n39 (+   _n38   _n37 ) ))
(let ((_n40 (and   _n29   _n10 ) ))
(let ((_n41 (ite  _n40   _n1   (ite  _n4  1 0)  ) ))
(let ((_n42 (ite  _n40   (ite  _n4  1 0)   _n0  ) ))
(let ((_n43 (+   _n42   _n41 ) ))
(let ((_n44 (ite (=  (ite  _n29  1 0)  1)  _n43   _n39  ) ))
(let ((_n45 (ite (=  (ite  _n10  1 0)  1)  _n44   _n25  ) ))
(let ((_n46 (=   _n45   _n8 ) ))
(let ((_n48 (+   _n5   (ite  _n9  1 0) ) ))
(let ((_n49 (ite (=  _n2  2)  _n48   _n5  ) ))
(let ((_n50 (or   _n19   _n15 ) ))
(let ((_n51 (not  _n50 ) ))
(let ((_n52 (+   _n3   (ite  _n51  1 0) ) ))
(let ((_n53 (+   _n3   (ite  _n22  1 0) ) ))
(let ((_n54 (ite (=  (ite  _n19  1 0)  1)  _n53   _n52  ) ))
(let ((_n55 (ite (=  (ite  _n13  1 0)  1)  _n54   _n3  ) ))
(let ((_n56 (not  _n31 ) ))
(let ((_n57 (ite  _n31   _n3   (ite  _n4  1 0)  ) ))
(let ((_n58 (+   _n57   (ite  _n56  1 0) ) ))
(let ((_n59 pkt_0_4_6_0 ))
(let ((_n60 (ite  _n40   _n59   (ite  _n4  1 0)  ) ))
(let ((_n61 (+   _n60   (ite  _n40  1 0) ) ))
(let ((_n62 (ite  _n40   _n61   (ite  _n4  1 0)  ) ))
(let ((_n63 (ite  _n40   (ite  _n4  1 0)   _n3  ) ))
(let ((_n64 (+   _n63   _n62 ) ))
(let ((_n65 (ite (=  (ite  _n29  1 0)  1)  _n64   _n58  ) ))
(let ((_n66 (ite (=  (ite  _n10  1 0)  1)  _n65   _n55  ) ))
(let ((_n67 (=   _n66   _n49 ) ))
(let ((_n69 (ite (=  _n59  0)  _n59   (ite  _n4  1 0)  ) ))
(let ((_n70 (ite (=  _n59  0)  _n69   _n59  ) ))
(let ((_n71 (=   _n70   _n59 ) ))
(implies  (and (and (>= state_group_0_state_1_6_8_0 0) (< state_group_0_state_1_6_8_0 1024 ))  (and (and (>= state_group_0_state_0_5_7_0 0) (< state_group_0_state_0_5_7_0 1024 ))  (and (>= pkt_0_4_6_0 0) (< pkt_0_4_6_0 1024 )) ) )   (and  _n46  _n67  _n71 )  )))))))))))))))))))))))))))))))))))))))))))))))))))))))))))))))))))))))))
(check-sat)
(get-model)
(exit)